treewidth/data/HyperStarGraph_10_2.gr
p tw 45 72
1 31
1 32
2 31
2 33
13 32
13 33
24 31
24 34
35 32
35 34
41 33
41 34
42 31
42 36
43 32
43 36
44 33
44 36
45 34
45 36
3 31
3 37
4 32
4 37
5 33
5 37
6 34
6 37
7 36
7 37
8 31
8 38
9 32
9 38
10 33
10 38
11 34
11 38
12 36
12 38
14 37
14 38
15 31
15 39
16 32
16 39
17 33
17 39
18 34
18 39
19 36
19 39
20 37
20 39
21 38
21 39
22 31
22 40
23 32
23 40
25 33
25 40
26 34
26 40
27 36
27 40
28 37
28 40
29 38
29 40
30 39
30 40
