treewidth/data/HyperStarGraph_10_2.td
c width = 8, time = 0.105578
s td 37 9 45
b 1 31 32 33 34 36 37 38 39 40
b 2 32 31 1
b 3 33 31 2
b 4 33 32 13
b 5 34 31 24
b 6 34 32 35
b 7 34 33 41
b 8 36 31 42
b 9 36 32 43
b 10 36 33 44
b 11 36 34 45
b 12 37 31 3
b 13 37 32 4
b 14 37 33 5
b 15 37 34 6
b 16 37 36 7
b 17 38 31 8
b 18 38 32 9
b 19 38 33 10
b 20 38 34 11
b 21 38 36 12
b 22 38 37 14
b 23 39 31 15
b 24 39 32 16
b 25 39 33 17
b 26 39 34 18
b 27 39 36 19
b 28 39 37 20
b 29 39 38 21
b 30 40 31 22
b 31 40 32 23
b 32 40 33 25
b 33 40 34 26
b 34 40 36 27
b 35 40 37 28
b 36 40 38 29
b 37 40 39 30
1 2
1 3
1 4
1 5
1 6
1 7
1 8
1 9
1 10
1 11
1 12
1 13
1 14
1 15
1 16
1 17
1 18
1 19
1 20
1 21
1 22
1 23
1 24
1 25
1 26
1 27
1 28
1 29
1 30
1 31
1 32
1 33
1 34
1 35
1 36
1 37
